# 49727
param n := 25;
param s := 1;
set E :=  (0,8) (0,10) (0,14) (0,23) (1,11) (1,22) (2,13) (2,19) (3,5) (3,6) (3,14) (3,21) (4,15) (4,17) (5,21) (6,12) (6,22) (7,8) (7,18) (7,23) (9,24) (11,23) (12,17) (13,20) (14,16) (14,18) (14,20) (14,24) (15,20) (16,22) (17,22) (17,23) (17,24) (18,19);
